%nproc=16
%mem=64GB
%rwf=/home/zz1/hotpot/test/output/gaussrun/readwrite.rwf
%NoSave
%chk=/home/zz1/hotpot/test/output/gaussrun/checkpoint.chk
# opt M062X 6-311

 C 6 H 7 Fe 1 N 1 O 2 +

1 2
C 2.313968 -0.680273 -1.142073
C 1.423945 0.497078 -1.041951
C 0.175394 0.48527 -0.031152
O -0.907056 -0.033519 -1.039491
Fe -2.40385 -0.520915 0.064632
O -0.823053 0.097451 1.002483
N 0.17476 2.058064 -0.187458
C 1.446554 0.488042 1.068127
C 2.42957 -0.418952 1.187619
C 2.757313 -1.224641 0.010924
H 2.553588 -1.066526 -2.122454
H 1.335743 0.927432 -2.030478
H -0.576607 2.593395 -0.598242
H 0.799255 2.648259 0.368442
H 1.26453 1.176515 1.883327
H 3.044646 -0.454073 2.0762
H 3.416029 -2.078261 0.042098



